sat
(:max-memory                   18.43
 :memory                       18.43
 :nlsat-arith-var              1
 :nlsat-atoms                  2
 :nlsat-bool-var               1
 :nlsat-clauses                2
 :nlsat-irrational-assignments 1
 :nlsat-propagations           2
 :nlsat-stages                 2
 :num-allocs                   41297
 :rlimit-count                 144
 :time                         0.00
 :total-time                   0.02)
